1 1603 8
2 1327 8
3 1277 7
4 1223 7
13 1183 7
22 1179 7
33 1150 7
183 1136 7
305 1131 7
454 1122 7



1 1473 8
2 1374 8
3 1342 7
4 1324 8
5 1315 7
6 1238 7
9 1163 7
18 1131 7
351 1093 7



1 1531 8
2 1328 7
3 1270 7
5 1248 7
13 1221 7
21 1182 7
32 1141 7
613 1134 7
736 1108 7



1 1506 8
2 1306 7
3 1300 8
4 1259 7
6 1224 7
10 1193 7
28 1188 7
45 1180 7
60 1174 7
77 1149 7
115 1108 7



1 1529 7
2 1285 7
4 1274 7
5 1250 7
9 1202 7
10 1199 7
34 1197 7
42 1094 7



